certificates/rado_a10_c244_N29.cnf
c Rad2 upper bound instance: x1 + 10*x2 - x3 = 244, interval [1,29]
p cnf 29 168
1 7 25 0
-1 -7 -25 0
1 17 26 0
-1 -17 -26 0
1 27 0
-1 -27 0
2 8 25 0
-2 -8 -25 0
2 18 26 0
-2 -18 -26 0
2 27 28 0
-2 -27 -28 0
3 9 25 0
-3 -9 -25 0
3 19 26 0
-3 -19 -26 0
3 27 29 0
-3 -27 -29 0
4 10 25 0
-4 -10 -25 0
4 20 26 0
-4 -20 -26 0
1 5 24 0
-1 -5 -24 0
5 11 25 0
-5 -11 -25 0
5 21 26 0
-5 -21 -26 0
2 6 24 0
-2 -6 -24 0
6 12 25 0
-6 -12 -25 0
6 22 26 0
-6 -22 -26 0
3 7 24 0
-3 -7 -24 0
7 13 25 0
-7 -13 -25 0
7 23 26 0
-7 -23 -26 0
4 8 24 0
-4 -8 -24 0
8 14 25 0
-8 -14 -25 0
8 24 26 0
-8 -24 -26 0
5 9 24 0
-5 -9 -24 0
9 15 25 0
-9 -15 -25 0
9 25 26 0
-9 -25 -26 0
6 10 24 0
-6 -10 -24 0
10 16 25 0
-10 -16 -25 0
10 26 0
-10 -26 0
7 11 24 0
-7 -11 -24 0
11 17 25 0
-11 -17 -25 0
11 26 27 0
-11 -26 -27 0
8 12 24 0
-8 -12 -24 0
12 18 25 0
-12 -18 -25 0
12 26 28 0
-12 -26 -28 0
9 13 24 0
-9 -13 -24 0
13 19 25 0
-13 -19 -25 0
13 26 29 0
-13 -26 -29 0
10 14 24 0
-10 -14 -24 0
14 20 25 0
-14 -20 -25 0
1 15 23 0
-1 -15 -23 0
11 15 24 0
-11 -15 -24 0
15 21 25 0
-15 -21 -25 0
2 16 23 0
-2 -16 -23 0
12 16 24 0
-12 -16 -24 0
16 22 25 0
-16 -22 -25 0
3 17 23 0
-3 -17 -23 0
13 17 24 0
-13 -17 -24 0
17 23 25 0
-17 -23 -25 0
4 18 23 0
-4 -18 -23 0
14 18 24 0
-14 -18 -24 0
18 24 25 0
-18 -24 -25 0
5 19 23 0
-5 -19 -23 0
15 19 24 0
-15 -19 -24 0
19 25 0
-19 -25 0
6 20 23 0
-6 -20 -23 0
16 20 24 0
-16 -20 -24 0
20 25 26 0
-20 -25 -26 0
7 21 23 0
-7 -21 -23 0
17 21 24 0
-17 -21 -24 0
21 25 27 0
-21 -25 -27 0
8 22 23 0
-8 -22 -23 0
18 22 24 0
-18 -22 -24 0
22 25 28 0
-22 -25 -28 0
9 23 0
-9 -23 0
19 23 24 0
-19 -23 -24 0
23 25 29 0
-23 -25 -29 0
10 23 24 0
-10 -23 -24 0
20 24 0
-20 -24 0
1 22 25 0
-1 -22 -25 0
11 23 25 0
-11 -23 -25 0
21 24 25 0
-21 -24 -25 0
2 22 26 0
-2 -22 -26 0
12 23 26 0
-12 -23 -26 0
22 24 26 0
-22 -24 -26 0
3 22 27 0
-3 -22 -27 0
13 23 27 0
-13 -23 -27 0
23 24 27 0
-23 -24 -27 0
4 22 28 0
-4 -22 -28 0
14 23 28 0
-14 -23 -28 0
24 28 0
-24 -28 0
5 22 29 0
-5 -22 -29 0
15 23 29 0
-15 -23 -29 0
24 25 29 0
-24 -25 -29 0
