certificates/rado_a10_c244_N29.drat
-27 -28 -29 0
-28 -29 0
d -27 -28 -29 0
-29 0
27 28 0
28 0
-24 0
20 0
25 0
-19 0
-26 0
-22 0
-14 0
15 0
23 0
10 0
8 0
0
